#BEGIN: [Fri Oct 28 10:24:57 2022]
#HOST: mini12.local
#TIMELIMIT: 10800
#MEMLIMIT: 0
#FREQ: 10
#SOLVER: anSolverAsp221027
#CSP: benchmark/automata-network/abdallah17amb_asp/toy-ex2.lp
#K: 4
#COMMAND: /Users/soh/app/finding_attractors/incremental-finding.sh benchmark/automata-network/abdallah17amb_asp/toy-ex2.lp 4
benchmark/automata-network/abdallah17amb_asp/toy-ex2.lp 1
-e %----- The attractor computed for benchmark/automata-network/abdallah17amb_asp/toy-ex2.lp 
 %----- The size of the attractor = 1 

clingo version 5.4.0
Reading from ...from_paper2017/scripts/fixed-points.lp ...
Solving...
Answer: 1
fix("a",0) fix("b",0) fix("c",0) fix("d",1)
Answer: 2
fix("a",1) fix("b",1) fix("c",1) fix("d",0)
Answer: 3
fix("a",1) fix("b",1) fix("c",0) fix("d",0)
SATISFIABLE

Models       : 3
Calls        : 1
Time         : 0.008s (Solving: 0.00s 1st Model: 0.00s Unsat: 0.00s)
CPU Time     : 0.004s
benchmark/automata-network/abdallah17amb_asp/toy-ex2.lp 2
-e %----- The attractor computed for benchmark/automata-network/abdallah17amb_asp/toy-ex2.lp 
 %----- The size of the attractor = 2 
-e   %----- The attractor computed with Asynchronous Dynamics 

-e CMD: clingo /Users/soh/app/finding_attractors/01_original_from_paper2017/scripts/asynch.lp /Users/soh/app/finding_attractors/02_attractors-new/with-cycle/attractors-preF.lp /Users/soh/app/finding_attractors/02_attractors-new/with-cycle/attractors-postF.lp benchmark/automata-network/abdallah17amb_asp/toy-ex2.lp --const n=2 0

clingo version 5.4.0
Reading from ...ginal_from_paper2017/scripts/asynch.lp ...
Solving...
Answer: 1
active(level("a",0),1) active(level("a",0),2) active(level("b",1),1) active(level("b",1),2) active(level("c",0),1) active(level("c",0),2) active(level("d",2),2) active(level("d",0),1) active(level("d",2),0) active(level("c",0),0) active(level("b",1),0) active(level("a",0),0) numberStates(2)
SATISFIABLE

Models       : 1
Calls        : 1
Time         : 0.045s (Solving: 0.00s 1st Model: 0.00s Unsat: 0.00s)
CPU Time     : 0.040s
[ Calling Python ]
[ Solving ready ]
*** New model found! (currently 1 solutions found)
{(0, 1, 0, 0), (0, 1, 0, 2)}
*** Found: 1; skipped: 0
benchmark/automata-network/abdallah17amb_asp/toy-ex2.lp 3
-e %----- The attractor computed for benchmark/automata-network/abdallah17amb_asp/toy-ex2.lp 
 %----- The size of the attractor = 3 
-e   %----- The attractor computed with Asynchronous Dynamics 

-e CMD: clingo /Users/soh/app/finding_attractors/01_original_from_paper2017/scripts/asynch.lp /Users/soh/app/finding_attractors/02_attractors-new/with-cycle/attractors-preF.lp /Users/soh/app/finding_attractors/02_attractors-new/with-cycle/attractors-postF.lp benchmark/automata-network/abdallah17amb_asp/toy-ex2.lp --const n=3 0

clingo version 5.4.0
Reading from ...ginal_from_paper2017/scripts/asynch.lp ...
Solving...
UNSATISFIABLE

Models       : 0
Calls        : 1
Time         : 0.051s (Solving: 0.00s 1st Model: 0.00s Unsat: 0.00s)
CPU Time     : 0.045s
[ Calling Python ]
[ Solving ready ]
*** Found: 0; skipped: 0
benchmark/automata-network/abdallah17amb_asp/toy-ex2.lp 4
-e %----- The attractor computed for benchmark/automata-network/abdallah17amb_asp/toy-ex2.lp 
 %----- The size of the attractor = 4 
-e   %----- The attractor computed with Asynchronous Dynamics 

-e CMD: clingo /Users/soh/app/finding_attractors/01_original_from_paper2017/scripts/asynch.lp /Users/soh/app/finding_attractors/02_attractors-new/with-cycle/attractors-preF.lp /Users/soh/app/finding_attractors/02_attractors-new/with-cycle/attractors-postF.lp benchmark/automata-network/abdallah17amb_asp/toy-ex2.lp --const n=4 0

clingo version 5.4.0
Reading from ...ginal_from_paper2017/scripts/asynch.lp ...
Solving...
Answer: 1
active(level("a",1),3) active(level("a",1),4) active(level("a",0),1) active(level("a",0),2) active(level("b",2),1) active(level("b",2),2) active(level("b",2),3) active(level("b",2),4) active(level("c",1),1) active(level("c",1),2) active(level("c",1),3) active(level("c",1),4) active(level("d",1),2) active(level("d",1),3) active(level("d",0),1) active(level("d",0),4) active(level("d",0),0) active(level("c",1),0) active(level("b",2),0) active(level("a",1),0) numberStates(4)
SATISFIABLE

Models       : 1
Calls        : 1
Time         : 0.054s (Solving: 0.00s 1st Model: 0.00s Unsat: 0.00s)
CPU Time     : 0.048s
[ Calling Python ]
[ Solving ready ]
*** New model found! (currently 1 solutions found)
{(0, 2, 1, 1), (1, 2, 1, 0), (1, 2, 1, 1), (0, 2, 1, 0)}
*** Found: 1; skipped: 0
s SATISFIABLE
	Command being timed: "/Users/soh/app/finding_attractors/incremental-finding.sh benchmark/automata-network/abdallah17amb_asp/toy-ex2.lp 4"
	User time (seconds): 0.14
	System time (seconds): 0.03
	Percent of CPU this job got: 78%
	Elapsed (wall clock) time (h:mm:ss or m:ss): 0:00.23
	Average shared text size (kbytes): 0
	Average unshared data size (kbytes): 0
	Average stack size (kbytes): 0
	Average total size (kbytes): 0
	Maximum resident set size (kbytes): 40435712
	Average resident set size (kbytes): 0
	Major (requiring I/O) page faults: 6
	Minor (reclaiming a frame) page faults: 11252
	Voluntary context switches: 107
	Involuntary context switches: 214
	Swaps: 0
	File system inputs: 0
	File system outputs: 0
	Socket messages sent: 192
	Socket messages received: 0
	Signals delivered: 1
	Page size (bytes): 4096
	Exit status: 0
FINISHED CPU 0.17 MEM 0 MAXMEM 0 STALE 1
#RESULT: SAT
#FIN: FIN
#CPU: 0.17
#MAXMEM: 0
c 
#END: [Fri Oct 28 10:24:57 2022]
